NAME: lin50
TYPE: TSP
COMMENT: 50-city problem (Lin/Kernighan)
DIMENSION: 50
EDGE_WEIGHT_TYPE: EUC_2D
NODE_COORD_SECTION
1 63 71
2 94 71
3 142 370
4 173 1276
5 205 1213
6 213 69
7 244 69
8 276 630
9 283 732
10 362 69
11 394 69
12 449 370
13 480 1276
14 512 1213
15 528 157
16 583 630
17 591 732
18 638 654
19 638 496
20 638 314
21 638 142
22 669 142
23 677 315
24 677 496
25 677 654
26 709 654
27 709 496
28 709 315
29 701 142
30 764 220
31 811 189
32 843 173
33 858 370
34 890 1276
35 921 1213
36 992 630
37 1000 732
38 1197 1276
39 1228 1213
40 1276 205
41 1299 630
42 1307 732
43 1362 654
44 1362 496
45 1362 291
46 1425 654
47 1425 496
48 1425 291
49 1417 173
50 1488 291
EOF
